NAME : pairopt
TYPE : ACVRP
DIMENSION : 10
EDGE_WEIGHT_TYPE : EXPLICIT
EDGE_WEIGHT_FORMAT : FULL_MATRIX
CAPACITY : 52
VEHICLES : 2
EDGE_WEIGHT_SECTION
100000 -100000 -100000 100000 100000 100000 100000 100000 100000 100000 
100000 100000 1000000 50643 582 50300 50259 50461 255 304 
100000 1000000 100000 1161 657 50815 50749 51065 50952 50565 
0 50643 1161 100000 500 100707 101802 250 856 641 
0 582 657 500 100000 100707 101500 101118 810 250 
0 50300 50815 100707 100707 100000 101118 100500 548 100500 
0 50259 50749 101802 101500 101118 100000 101414 250 741 
0 50461 51065 250 101118 100500 101414 100000 596 101000 
0 255 50952 856 810 548 250 596 100000 559 
0 304 50565 641 250 100500 741 101000 559 100000 
DEMAND_SECTION
1 0
2 0
3 0
4 10
5 10
6 10
7 10
8 10
9 10
10 10
DEPOT_SECTION
1
EOF